1417.36 0
0 96 104 23 160 185 90 143 68 42 199 195 0
0 151 55 44 181 145 135 92 148 163 25 56 72 32 187 0
0 15 154 124 20 37 88 138 166 122 121 140 94 101 86 0
0 2 64 28 93 196 194 193 33 61 0
0 26 149 51 7 132 180 69 108 11 168 0
0 152 139 120 171 47 155 36 174 82 173 21 172 157 0
0 60 175 46 176 102 8 178 35 14 128 70 27 0
0 81 71 119 38 77 10 129 130 40 95 6 0
0 100 150 52 165 170 164 85 134 84 133 177 19 78 65 34 0
0 117 3 63 107 24 144 116 62 115 190 43 197 136 191 1 66 0
0 54 30 48 59 5 103 79 123 13 83 153 29 0
0 125 98 45 58 99 179 167 111 4 87 127 0
0 17 39 109 57 189 75 162 31 131 80 169 50 12 126 0
0 188 16 67 159 182 49 74 183 192 158 198 53 105 0
0 76 97 161 9 110 118 18 146 73 147 106 0
0 112 186 141 22 156 114 142 91 113 137 89 41 184 0